c 
c MolecularSimulation 0.9.3
c Simulation written: Jan 13 2012 -- 15:17:57
c Test: Distribution
c Input: ./data/testCNF/SWEEP_R2_K3_N20_M32_S002.cnf
c 
s SATISFIABLE
v 1 2 3 -4 5 6 10 11 -12 13 14 15 -16 -17 0
c algorithmTime:  792
c solutionMemory: 257777
c mixCount:       93
c extractCount:   0
c appendCount:    15792985
c splitCount:     93
c spliceCount:    7415509
c purifyCount:    31
c 
